18 94
45 83
68 47
52 61
30 45
32 90
13 123
82 61
70 48
28 105
7 44
32 39
56 10
33 15
45 96
83 13
5 178
21 24
50 60
57 11
36 72
38 29
38 117
6 6
49 14
6 148
54 11
5 174
79 49
3 28
14 35
20 168
38 147
26 21
26 66
62 61
44 49
45 84
10 138
11 142
16 122
26 45
14 113
88 52
89 1
35 89
63 23
35 3
65 49
6 78
